%mem=20GB
%nprocshared=40
%chk=CONTCAR.chk 

#p opt pbe1pbe/gen nosymm pseudo=read scf=maxcycles=10000

CONTCAR
  
0 1
C     0     9.6296      12.8082     8.0429    
C     0     9.8113      12.4594     9.3804    
C     0     10.1288     11.1488     9.7259    
C     0     10.2596     10.1531     8.739     
C     0     10.061      10.5078     7.4019    
C     0     9.7541      11.8279     7.057     
C     0     7.1427      9.4602      9.9146    
H     0     9.3817      13.8362     7.7843    
H     0     9.6927      13.182      10.1899   
H     0     10.1325     9.7368      6.6308    
H     0     9.6049      12.0861     6.0089    
H     0     10.6005     8.2897      8.3881    
H     0     6.3735      8.6825      10.0621   
H     0     6.6655      10.3461     9.4624    
H     0     7.9008      9.0659      9.2175    
H     0     0.3724      16.4653     22.6033   
H     0     5.5254      16.408      22.6669   
H     0     12.2024     16.3496     22.5987   
H     0     3.2605      12.2571     22.6101   
H     0     9.412       12.0127     22.6173   
H     0     14.6091     12.3643     22.5878   
H     0     0.2432      6.7849      22.5754   
H     0     6.0632      6.3936      22.6884   
H     0     11.7833     6.2171      22.5422   
H     0     2.9409      2.1696      22.5956   
H     0     8.9417      1.7644      22.5936   
H     0     14.1107     1.9469      22.668    
O     0     10.273      10.8036     11.0424   
O     0     11.419      12.983      13.3586   
O     0     12.5306     10.221      12.8601   
O     0     9.0368      8.6468      13.3364   
O     0     8.4519      11.5069     13.2157   
O     0     7.6708      9.7877      11.1696   
O     0     10.5427     8.8814      9.1596    
O     -1    0.9165      0.965       17.7536   
O     -1    3.7336      5.5367      17.7156   
O     -1    6.233       0.8886      17.6978   
O     -1    8.7616      5.5564      17.723    
O     -1    0.9618      8.5587      19.8423   
O     -1    0.9583      2.4816      15.5374   
O     -1    3.6091      3.9915      19.7984   
O     -1    3.6217      7.0524      15.4983   
O     -1    6.246       8.5604      19.8542   
O     -1    6.2471      2.4598      15.577    
O     -1    8.8808      3.9916      19.7921   
O     -1    8.8744      7.0525      15.4894   
O     -1    2.3073      1.7401      19.8259   
O     -1    2.2835      4.779       15.5814   
O     -1    4.9405      6.3095      19.8776   
O     -1    4.9265      0.2234      15.4452   
O     -1    7.5812      1.7467      19.7457   
O     -1    7.5922      4.7898      15.4983   
O     -1    10.2231     6.3106      19.7532   
O     -1    10.2015     0.2058      15.5587   
O     -1    2.2633      6.3095      19.7322   
O     -1    2.2821      0.2002      15.5729   
O     -1    4.9069      1.7451      19.7626   
O     -1    4.8927      4.7843      15.4839   
O     -1    7.5453      6.306       19.8876   
O     -1    7.5577      0.2159      15.4568   
O     -1    10.1807     1.7402      19.8054   
O     -1    10.2008     4.7744      15.5942   
O     -1    0.9168      10.1047     17.7541   
O     -1    3.7301      14.6733     17.7145   
O     -1    6.2335      10.0247     17.6976   
O     -1    8.7656      14.694      17.7219   
O     -1    0.9622      17.696      19.8445   
O     -1    0.9587      11.6184     15.535    
O     -1    3.6091      13.1288     19.7988   
O     -1    3.6217      16.1906     15.498    
O     -1    6.2458      17.698      19.8541   
O     -1    6.2473      11.597      15.577    
O     -1    8.8809      13.1295     19.7919   
O     -1    8.8738      16.1904     15.4893   
O     -1    2.3063      10.8772     19.8264   
O     -1    2.2846      13.9156     15.578    
O     -1    4.9402      15.4477     19.8754   
O     -1    4.9266      9.3611      15.4454   
O     -1    7.5805      10.8839     19.7458   
O     -1    7.5932      13.9268     15.4991   
O     -1    10.223      15.4487     19.7551   
O     -1    10.2017     9.3429      15.5577   
O     -1    2.2632      15.4468     19.7329   
O     -1    2.282       9.3381      15.5732   
O     -1    4.9067      10.8818     19.7617   
O     -1    4.893       13.9225     15.4846   
O     -1    7.545       15.4437     19.8851   
O     -1    7.5585      9.3531      15.4557   
O     -1    10.1804     10.8773     19.8052   
O     -1    10.2019     13.9123     15.5908   
O     -1    11.5776     0.9478      17.7446   
O     -1    14.1517     5.5704      17.6612   
O     -1    11.5265     8.5585      19.8429   
O     -1    11.5341     2.4815      15.54     
O     -1    14.1589     3.9777      19.7231   
O     -1    14.1592     7.022       15.468    
O     -1    12.8584     1.7307      19.8658   
O     -1    12.8435     4.7766      15.4472   
O     -1    15.494      6.3083      19.7568   
O     -1    15.506      0.2144      15.5584   
O     -1    12.8218     6.3064      19.7649   
O     -1    12.8074     0.2102      15.5393   
O     -1    15.4571     1.7293      19.878    
O     -1    15.4725     4.7727      15.4529   
O     -1    11.5772     10.087      17.7429   
O     -1    14.1525     14.7113     17.6608   
O     -1    11.5264     17.6963     19.8455   
O     -1    11.533      11.6186     15.5374   
O     -1    14.1588     13.1153     19.7212   
O     -1    14.1593     16.1591     15.4663   
O     -1    12.8583     10.8687     19.8653   
O     -1    12.8444     13.9133     15.4487   
O     -1    15.4932     15.4462     19.7579   
O     -1    15.5063     9.3516      15.5583   
O     -1    12.8215     15.4442     19.7647   
O     -1    12.8074     9.3482      15.5392   
O     -1    15.4573     10.8665     19.8775   
O     -1    15.473      13.911      15.4543   
O     -1    1.077       16.0385     22.0722   
O     -1    6.318       16.1745     22.1584   
O     -1    11.4293     16.0541     22.0789   
O     -1    3.7268      11.587      22.0872   
O     -1    8.7502      11.5615     22.0707   
O     -1    14.058      11.7225     22.1107   
O     -1    1.0544      6.937       22.0677   
O     -1    6.2414      7.1819      22.1532   
O     -1    11.557      7.0413      22.0834   
O     -1    3.7059      2.4914      22.0924   
O     -1    8.8409      2.5797      22.0769   
O     -1    14.1452     2.744       22.104    
Si    -1    0.9697      7.032       20.4456   
Si    -1    1.0253      1.0059      16.1856   
Si    -1    3.6205      2.4897      20.4655   
Si    -1    3.5637      5.5767      16.15     
Si    -1    6.2418      7.0666      20.5334   
Si    -1    6.2415      0.8694      16.125    
Si    -1    8.8686      2.4871      20.452    
Si    -1    8.9242      5.5844      16.1564   
Si    -1    0.9631      0.9674      19.4342   
Si    -1    0.9914      4.0042      14.9592   
Si    -1    3.6248      5.5393      19.3941   
Si    -1    3.5846      8.5853      14.9512   
Si    -1    6.2418      0.9478      19.3779   
Si    -1    6.2437      4.0145      15.5876   
Si    -1    8.8642      5.5432      19.4016   
Si    -1    8.8987      8.5858      14.9382   
Si    -1    0.9699      16.1692     20.4489   
Si    -1    1.0251      10.1438     16.1849   
Si    -1    3.621       11.628      20.4654   
Si    -1    3.5631      14.715      16.1494   
Si    -1    6.2413      16.2031     20.5331   
Si    -1    6.2426      10.0064     16.1242   
Si    -1    8.868       11.6249     20.4527   
Si    -1    8.9259      14.7219     16.1556   
Si    -1    0.9628      10.1055     19.4342   
Si    -1    0.991       13.1422     14.9574   
Si    -1    3.6245      14.677      19.393    
Si    -1    3.5845      17.7232     14.9503   
Si    -1    6.2418      10.0851     19.3773   
Si    -1    6.2441      13.1518     15.5885   
Si    -1    8.8645      14.6815     19.4009   
Si    -1    8.8982      17.7242     14.9393   
Si    -1    11.5207     7.0356      20.4555   
Si    -1    11.4621     0.9999      16.1758   
Si    -1    14.1559     2.5205      20.4877   
Si    -1    14.1585     5.4574      16.0907   
Si    -1    11.5259     0.9643      19.425    
Si    -1    11.493      4.0053      14.9691   
Si    -1    14.157      5.5317      19.3419   
Si    -1    14.1578     8.5737      15.5906   
Si    -1    11.5207     16.173      20.4566   
Si    -1    11.4617     10.1376     16.1745   
Si    -1    14.1556     11.6589     20.4875   
Si    -1    14.1588     14.5955     16.0908   
Si    -1    11.5259     10.1023     19.4237   
Si    -1    11.4944     13.1431     14.9679   
Si    -1    14.157      14.6699     19.3415   
Si    -1    14.1577     17.7121     15.59     
V     0     8.9462      10.206      12.3557   
V     0     11.3912     11.3198     12.5122   
Tv     15.82878    0.0         0.0       
Tv     0.0         18.27532    0.0       
Tv     0.0         0.0         25.0      
